(set-logic LIA)
(synth-fun next ((brake Int) (distance Int) (speed Int) (throttle Int) (ignition Bool) (time Int) ) Int
	((Start Int) (Var Int) (StartBool Bool))
	((Start Int (
				 3
				 4
				 (ite StartBool Start Start)))

	(Var Int (
			 0
			 1
			 2
			 3
			 4
			 5
			 7
			 172
			 550
			 brake
			 distance
			 speed
			 throttle
			 time
			 (+ Var Var)						
			 (- Var Var)						
			 (* Var Var)))

	(StartBool Bool (
				 	 ignition
					(= Var Var)						
					(>= Var Var)						
					(<= Var Var)						
					(and StartBool StartBool)			
					(or  StartBool StartBool)				
					(not StartBool)))))

(constraint (= (next 0 0 1 5 true 428 ) 3))
(constraint (= (next 0 0 8 9 true 671 ) 4))

(check-synth)
